Welcome to the CBC MILP Solver 
Version: 2.10.12 
Build Date: Aug 20 2024 

command line - /opt/homebrew/bin/cbc computational_data/lp/ER_n20_p020_s9.lp seconds 10.0 solve solu computational_data/solutions/ER_n20_p020_s9.sol (default strategy 1)
seconds was changed from 1e+100 to 10
Continuous objective value is 6.56 - 0.00 seconds
Cgl0003I 0 fixed, 0 tightened bounds, 31 strengthened rows, 0 substitutions
Cgl0003I 0 fixed, 0 tightened bounds, 22 strengthened rows, 0 substitutions
Cgl0003I 0 fixed, 0 tightened bounds, 19 strengthened rows, 0 substitutions
Cgl0004I processed model has 121 rows, 39 columns (39 integer (39 of which binary)) and 505 elements
Cutoff increment increased from 1e-05 to 0.9999
Cbc0038I Initial state - 27 integers unsatisfied sum - 6.08182
Cbc0038I Pass   1: suminf.    5.35870 (24) obj. 6.71522 iterations 14
Cbc0038I Pass   2: suminf.    4.23529 (18) obj. 7.52941 iterations 20
Cbc0038I Pass   3: suminf.    0.00000 (0) obj. 8 iterations 35
Cbc0038I Solution found of 8
Cbc0038I Before mini branch and bound, 7 integers at bound fixed and 0 continuous
Cbc0038I Full problem 121 rows 39 columns, reduced to 109 rows 32 columns
Cbc0038I Mini branch and bound did not improve solution (0.01 seconds)
Cbc0038I Round again with cutoff of 6.96373
Cbc0038I Reduced cost fixing fixed 6 variables on major pass 2
Cbc0038I Pass   4: suminf.    5.35870 (24) obj. 6.71522 iterations 0
Cbc0038I Pass   5: suminf.    5.03627 (21) obj. 6.96373 iterations 12
Cbc0038I Pass   6: suminf.    6.26422 (17) obj. 6.96373 iterations 20
Cbc0038I Pass   7: suminf.    5.46529 (19) obj. 6.96373 iterations 8
Cbc0038I Pass   8: suminf.    5.46529 (19) obj. 6.96373 iterations 1
Cbc0038I Pass   9: suminf.    5.79792 (20) obj. 6.96373 iterations 12
Cbc0038I Pass  10: suminf.    5.26360 (23) obj. 6.96373 iterations 13
Cbc0038I Pass  11: suminf.    6.00227 (23) obj. 6.96373 iterations 22
Cbc0038I Pass  12: suminf.    5.35870 (24) obj. 6.71522 iterations 9
Cbc0038I Pass  13: suminf.    5.03627 (21) obj. 6.96373 iterations 14
Cbc0038I Pass  14: suminf.    5.47568 (18) obj. 6.96373 iterations 12
Cbc0038I Pass  15: suminf.    5.03627 (19) obj. 6.96373 iterations 7
Cbc0038I Pass  16: suminf.    5.03627 (19) obj. 6.96373 iterations 4
Cbc0038I Pass  17: suminf.    5.83823 (19) obj. 6.96373 iterations 13
Cbc0038I Pass  18: suminf.    5.54171 (21) obj. 6.96373 iterations 8
Cbc0038I Pass  19: suminf.    5.47843 (22) obj. 6.96373 iterations 2
Cbc0038I Pass  20: suminf.    5.70717 (23) obj. 6.96373 iterations 14
Cbc0038I Pass  21: suminf.    4.77444 (22) obj. 6.96373 iterations 14
Cbc0038I Pass  22: suminf.    5.99395 (23) obj. 6.96373 iterations 15
Cbc0038I Pass  23: suminf.    5.35870 (24) obj. 6.71522 iterations 10
Cbc0038I Pass  24: suminf.    5.03627 (21) obj. 6.96373 iterations 11
Cbc0038I Pass  25: suminf.    5.60907 (20) obj. 6.96373 iterations 13
Cbc0038I Pass  26: suminf.    5.17271 (22) obj. 6.96373 iterations 15
Cbc0038I Pass  27: suminf.    5.68101 (23) obj. 6.96373 iterations 16
Cbc0038I Pass  28: suminf.    4.98696 (22) obj. 6.96373 iterations 8
Cbc0038I Pass  29: suminf.    4.92451 (19) obj. 6.96373 iterations 9
Cbc0038I Pass  30: suminf.    5.74635 (24) obj. 6.96373 iterations 25
Cbc0038I Pass  31: suminf.    5.25000 (22) obj. 6.75 iterations 15
Cbc0038I Pass  32: suminf.    5.95796 (22) obj. 6.96373 iterations 16
Cbc0038I Pass  33: suminf.    5.37792 (23) obj. 6.96373 iterations 16
Cbc0038I No solution found this major pass
Cbc0038I Before mini branch and bound, 7 integers at bound fixed and 0 continuous
Cbc0038I Full problem 121 rows 39 columns, reduced to 102 rows 32 columns
Cbc0038I Mini branch and bound did not improve solution (0.02 seconds)
Cbc0038I After 0.02 seconds - Feasibility pump exiting with objective of 8 - took 0.02 seconds
Cbc0012I Integer solution of 8 found by feasibility pump after 0 iterations and 0 nodes (0.02 seconds)
Cbc0038I Full problem 121 rows 39 columns, reduced to 92 rows 28 columns
Cbc0031I 7 added rows had average density of 24.571429
Cbc0013I At root node, 52 cuts changed objective from 6.6363636 to 7.040944 in 3 passes
Cbc0014I Cut generator 0 (Probing) - 4 row cuts average 4.8 elements, 2 column cuts (2 active)  in 0.000 seconds - new frequency is 1
Cbc0014I Cut generator 1 (Gomory) - 47 row cuts average 29.0 elements, 0 column cuts (0 active)  in 0.000 seconds - new frequency is 1
Cbc0014I Cut generator 2 (Knapsack) - 0 row cuts average 0.0 elements, 0 column cuts (0 active)  in 0.000 seconds - new frequency is -100
Cbc0014I Cut generator 3 (Clique) - 0 row cuts average 0.0 elements, 0 column cuts (0 active)  in 0.000 seconds - new frequency is -100
Cbc0014I Cut generator 4 (MixedIntegerRounding2) - 0 row cuts average 0.0 elements, 0 column cuts (0 active)  in 0.000 seconds - new frequency is -100
Cbc0014I Cut generator 5 (FlowCover) - 0 row cuts average 0.0 elements, 0 column cuts (0 active)  in 0.000 seconds - new frequency is -100
Cbc0014I Cut generator 6 (TwoMirCuts) - 111 row cuts average 28.5 elements, 0 column cuts (0 active)  in 0.001 seconds - new frequency is -100
Cbc0014I Cut generator 7 (ZeroHalf) - 13 row cuts average 4.8 elements, 0 column cuts (0 active)  in 0.004 seconds - new frequency is 1
Cbc0001I Search completed - best objective 8, took 42 iterations and 0 nodes (0.03 seconds)
Cbc0035I Maximum depth 0, 9 variables fixed on reduced cost
Cuts at root node changed objective from 6.63636 to 7.04094
Probing was tried 3 times and created 6 cuts of which 0 were active after adding rounds of cuts (0.000 seconds)
Gomory was tried 3 times and created 47 cuts of which 0 were active after adding rounds of cuts (0.000 seconds)
Knapsack was tried 3 times and created 0 cuts of which 0 were active after adding rounds of cuts (0.000 seconds)
Clique was tried 3 times and created 0 cuts of which 0 were active after adding rounds of cuts (0.000 seconds)
MixedIntegerRounding2 was tried 3 times and created 0 cuts of which 0 were active after adding rounds of cuts (0.000 seconds)
FlowCover was tried 3 times and created 0 cuts of which 0 were active after adding rounds of cuts (0.000 seconds)
TwoMirCuts was tried 3 times and created 111 cuts of which 0 were active after adding rounds of cuts (0.001 seconds)
ZeroHalf was tried 3 times and created 13 cuts of which 0 were active after adding rounds of cuts (0.004 seconds)

Result - Optimal solution found

Objective value:                8.00000000
Enumerated nodes:               0
Total iterations:               42
Time (CPU seconds):             0.03
Time (Wallclock seconds):       0.04

Total time (CPU seconds):       0.03   (Wallclock seconds):       0.04

